	Costo	Iter.	Tiempo
1	530,9	146	19,004
2	862,52	185	35,457
3	837,07	202	87,416
4	1090,3	322	322,693
5	1413,93	250	447,275
6	566,45	200	23,796
7	918,48	251	290,393
8	884,26	153	149,5
9	1233,22	190	3361,402
10	1524,34	137	9547,689
11	1242,95	217	155,915
12	819,55	147	57,925
13	1646,86	210	152,838
14	882,3	319	138,398
